8 8
4
3 3 5 5
3 5 5 0
5 3 0 5
5 5 0 0
% time elapsed: 0.09 s
% time elapsed: 0.09 s
%%%mzn-stat: initTime=0.000224
%%%mzn-stat: solveTime=0.000141
%%%mzn-stat: solutions=4
%%%mzn-stat: variables=9
%%%mzn-stat: propagators=9
%%%mzn-stat: propagations=191
%%%mzn-stat: nodes=32
%%%mzn-stat: failures=8
%%%mzn-stat: restarts=0
%%%mzn-stat: peakDepth=9
%%%mzn-stat-end
